%
% Generated Sudoku 25x25
% Density approximation: 0.50
%
x = array2d(1..n, 1..n, [
   _,  20,  18,   _,   6,  12,   _,  17,   _,   _,  16,   _,   _,  23,   _,  14,  13,   3,   2,  19,   7,   _,   _,   8,   9,
  13,   5,  14,  25,   _,   _,   _,  18,   6,   _,   _,   _,   _,   _,   _,   _,   _,  16,   _,   8,  15,   _,   _,  23,   _,
   _,  16,   _,   _,   3,   _,   _,   _,   8,   _,   _,   _,   1,  17,   2,   _,   _,   _,   9,   _,   _,  20,   _,   5,   _,
   _,   _,   _,   7,  17,  20,   _,  22,   _,   9,   _,   _,  19,   _,   8,   _,   _,   _,   4,   _,  10,  12,  16,   _,   _,
   1,   _,   _,   _,   _,   _,   2,  21,   _,   _,   _,   _,   7,  20,  13,   _,   _,   _,   _,  12,   _,   _,   3,  24,  14,
   _,   7,   9,   _,   2,  22,   _,  24,  23,   6,   _,   _,   _,  18,   5,   _,   _,  13,   _,   _,  16,  21,  15,   _,   _,
   _,   _,   _,  17,  10,   4,   _,   _,  16,  19,   _,  20,   _,   _,  21,   _,   _,  15,   _,   5,   _,  24,   _,   9,   _,
   _,   _,  24,   _,   5,   2,  11,  25,   _,  18,   9,   _,  15,   4,   _,  21,   _,  20,   _,   _,  19,   8,   1,  22,   _,
   _,   _,  15,   _,  14,   _,   _,   8,   _,   _,   _,  22,   2,   7,   _,   _,   _,   _,   _,  10,   _,  17,  20,   _,  13,
  21,   3,  20,  23,  25,   _,  13,  10,   _,   _,   _,  16,   _,   8,   1,   _,   _,   _,   _,  22,   6,   5,   _,  14,  18,
   _,  25,   3,   _,   _,   _,  19,   _,   _,  14,   _,   _,  16,   _,   _,   _,   _,   5,  11,   _,   _,  18,  17,   _,   4,
   9,   _,  19,  18,   _,   _,   _,   _,   _,  22,   7,   3,   _,  10,   _,  12,   _,  17,   1,  14,  25,   _,   _,   _,   _,
   _,  23,  21,   _,   _,  24,   3,   _,   9,  12,   _,   4,  20,   _,  14,   8,  22,   _,  18,  13,   _,   _,   _,   _,   7,
  14,   _,   5,  13,   4,   8,  10,  20,   _,   1,  11,   _,   _,  25,   _,   7,  15,   _,   _,  16,   _,   _,   _,   _,   3,
   _,   _,  12,  24,  16,   _,  25,   4,  17,   _,  22,   _,  18,  13,  15,  20,   _,   _,   _,  23,   _,   9,   _,   _,  19,
   _,  14,  16,   4,  19,  23,  18,  11,  20,   _,   2,   _,  13,   _,   _,   5,   _,   _,   _,   _,   9,   _,   6,   _,   1,
   _,   _,   _,   3,   _,  17,  15,  12,   _,   _,  25,   _,   _,   _,   9,  11,  16,   _,  22,   1,   4,  10,   _,   _,   8,
   _,   _,   _,   2,  15,  25,   _,   5,   _,  13,  21,   _,   6,  24,   _,  10,   _,   _,  23,   4,   _,   _,  18,   7,  16,
  18,   _,   _,   _,  23,   _,  21,   _,   _,  16,   _,   _,   4,  11,  20,  13,   _,   _,   _,   _,  24,  15,  12,   _,   _,
  12,   _,  17,   _,  13,   _,   6,  14,  24,   _,  18,   _,   _,  16,  19,   _,   _,   2,  15,   _,  21,   3,   _,  11,   _,
  23,   _,  13,   _,   _,   _,  17,   2,  12,  10,   3,   6,   _,   9,   _,  18,   1,  11,  25,   _,   5,   _,   _,   _,  20,
   _,  12,   2,   _,   8,   _,   _,   _,   _,   _,   4,  25,   _,   _,   _,  22,  21,  24,   _,   6,  13,   7,  11,  19,  17,
  11,  17,  25,   _,   _,  14,  22,   _,   _,  21,   _,   _,   8,   _,   7,   _,  12,   _,   _,   _,   _,   _,   9,  10,  24,
  19,   _,   _,   _,   _,   _,   _,   _,   _,  24,  23,   _,  17,  12,   _,   _,   9,   8,  20,   _,   _,   _,  21,  18,   _,
   _,   9,   4,   5,   1,   _,   8,   _,  11,   _,  20,   _,   _,   _,   _,   _,   _,  10,   _,  17,   _,   2,  25,   3,  22
]);

n = 25;
